NAME: GRASP_11_0
TYPE: TSP
COMMENT: line_11_0
DIMENSION: 11
EDGE_WEIGHT_TYPE: EUC_2D
NODE_COORD_SECTION
1 0.0 104.0
2 0.0 29.0
3 0.0 54.0
4 0.0 73.0
5 0.0 6.0
6 0.0 61.0
7 0.0 52.0
8 0.0 48.0
9 0.0 104.0
10 0.0 97.0
11 0.0 86.0
